45 45
36 22
6 21
43 7
31 4
23 2
10 10
35 18
8 13
11 10
18 15
32 13
17 4
39 3
33 8
40 19
25 1
15 11
19 9
1 12
21 8
38 11
45 17
24 5
12 23
22 16
34 2
7 14
37 20
5 6
2 16
16 9
14 15
44 1
41 5
4 17
29 12
42 21
20 14
26 3
13 20
28 19
30 7
3 22
27 6
9 18
